benchmarks_CP/INST_36x36/55/inst36x36_55_15.dzn
S=6;
start=[|
13,	-1,	28,	-1,	15,	-1,	-1,	17,	23,	-1,	-1,	8,	2,	-1,	25,	31,	10,	-1,	7,	24,	33,	-1,	11,	-1,	21,	20,	26,	5,	-1,	6,	-1,	-1,	12,	18,	-1,	34|
19,	-1,	32,	-1,	-1,	6,	5,	-1,	14,	-1,	3,	27,	21,	-1,	33,	12,	-1,	16,	-1,	-1,	2,	13,	-1,	-1,	-1,	-1,	-1,	-1,	-1,	-1,	8,	20,	28,	35,	9,	-1|
5,	1,	25,	29,	4,	26,	12,	28,	-1,	-1,	31,	-1,	-1,	15,	-1,	20,	27,	24,	35,	-1,	19,	6,	10,	21,	34,	32,	9,	18,	-1,	3,	-1,	33,	36,	11,	-1,	2|
-1,	34,	10,	2,	17,	-1,	33,	29,	-1,	15,	-1,	-1,	32,	-1,	4,	-1,	7,	-1,	-1,	-1,	-1,	-1,	36,	-1,	24,	19,	-1,	-1,	28,	-1,	-1,	13,	5,	-1,	3,	31|
7,	8,	20,	22,	23,	36,	1,	21,	11,	-1,	-1,	2,	13,	28,	5,	17,	6,	-1,	-1,	-1,	-1,	9,	18,	-1,	-1,	35,	27,	-1,	-1,	-1,	4,	19,	26,	10,	-1,	24|
12,	16,	-1,	-1,	-1,	21,	-1,	-1,	18,	-1,	20,	4,	34,	-1,	26,	35,	19,	1,	8,	-1,	5,	3,	28,	-1,	-1,	-1,	-1,	2,	-1,	7,	15,	17,	-1,	32,	-1,	6|
-1,	-1,	8,	24,	10,	-1,	6,	-1,	33,	-1,	-1,	32,	-1,	-1,	-1,	19,	-1,	-1,	-1,	23,	-1,	-1,	-1,	-1,	-1,	-1,	21,	-1,	9,	18,	-1,	-1,	-1,	5,	27,	30|
-1,	-1,	-1,	-1,	-1,	5,	-1,	2,	34,	10,	4,	22,	8,	23,	15,	-1,	3,	20,	13,	12,	36,	-1,	35,	27,	-1,	31,	6,	30,	19,	25,	26,	-1,	17,	24,	32,	-1|
29,	-1,	26,	-1,	-1,	3,	-1,	27,	8,	5,	-1,	31,	-1,	-1,	-1,	28,	-1,	-1,	-1,	-1,	21,	16,	1,	19,	-1,	33,	7,	-1,	-1,	36,	10,	14,	-1,	-1,	34,	-1|
14,	32,	-1,	25,	16,	30,	-1,	-1,	-1,	12,	35,	17,	-1,	2,	27,	21,	31,	-1,	11,	-1,	6,	28,	-1,	10,	23,	26,	-1,	-1,	-1,	29,	33,	-1,	-1,	19,	-1,	-1|
21,	31,	-1,	19,	-1,	-1,	11,	30,	-1,	-1,	-1,	18,	7,	1,	-1,	-1,	-1,	25,	32,	-1,	-1,	33,	-1,	34,	-1,	14,	35,	22,	5,	13,	28,	-1,	29,	-1,	-1,	20|
36,	12,	-1,	20,	22,	28,	-1,	-1,	-1,	-1,	24,	19,	-1,	-1,	9,	34,	-1,	-1,	30,	5,	7,	-1,	4,	18,	-1,	8,	3,	10,	-1,	16,	-1,	2,	23,	1,	-1,	-1|
-1,	-1,	30,	35,	29,	7,	-1,	32,	24,	28,	19,	16,	33,	-1,	-1,	-1,	17,	31,	26,	-1,	15,	25,	-1,	1,	9,	-1,	-1,	27,	-1,	14,	-1,	36,	-1,	6,	5,	3|
-1,	3,	-1,	-1,	-1,	16,	20,	25,	-1,	-1,	29,	35,	18,	10,	22,	1,	36,	13,	28,	7,	11,	-1,	2,	14,	19,	24,	-1,	23,	8,	21,	12,	-1,	33,	4,	-1,	9|
-1,	25,	-1,	5,	21,	12,	18,	-1,	-1,	-1,	33,	7,	-1,	27,	-1,	-1,	-1,	8,	31,	-1,	22,	-1,	-1,	-1,	-1,	-1,	-1,	-1,	29,	1,	34,	-1,	-1,	-1,	-1,	-1|
-1,	-1,	-1,	36,	19,	-1,	8,	15,	26,	17,	-1,	30,	25,	35,	-1,	5,	9,	-1,	-1,	-1,	13,	18,	-1,	16,	22,	34,	31,	-1,	-1,	-1,	-1,	32,	2,	20,	-1,	23|
-1,	33,	27,	-1,	-1,	-1,	-1,	-1,	5,	14,	23,	12,	-1,	30,	-1,	7,	-1,	-1,	36,	20,	-1,	-1,	-1,	-1,	-1,	13,	-1,	-1,	-1,	26,	1,	28,	-1,	-1,	-1,	8|
20,	13,	23,	14,	-1,	10,	4,	9,	-1,	-1,	11,	1,	6,	-1,	-1,	16,	-1,	-1,	21,	-1,	-1,	-1,	19,	-1,	-1,	-1,	-1,	-1,	-1,	17,	25,	26,	31,	7,	-1,	-1|
-1,	-1,	-1,	-1,	-1,	20,	27,	23,	9,	-1,	5,	-1,	16,	-1,	13,	18,	-1,	10,	14,	-1,	-1,	-1,	12,	15,	-1,	-1,	11,	3,	4,	-1,	17,	1,	-1,	8,	35,	-1|
-1,	-1,	15,	-1,	3,	19,	-1,	6,	-1,	25,	-1,	-1,	-1,	-1,	7,	-1,	-1,	-1,	18,	27,	4,	-1,	-1,	-1,	16,	9,	-1,	-1,	-1,	35,	-1,	-1,	14,	-1,	36,	21|
35,	18,	-1,	-1,	12,	-1,	36,	7,	-1,	11,	-1,	34,	1,	-1,	-1,	15,	-1,	26,	9,	-1,	-1,	22,	32,	3,	6,	2,	14,	29,	-1,	-1,	-1,	-1,	16,	27,	-1,	28|
16,	-1,	36,	13,	6,	-1,	-1,	24,	-1,	-1,	12,	-1,	-1,	4,	-1,	11,	-1,	-1,	19,	26,	-1,	7,	21,	-1,	-1,	-1,	20,	8,	-1,	27,	-1,	31,	3,	-1,	-1,	15|
22,	-1,	9,	-1,	-1,	4,	3,	26,	15,	-1,	-1,	33,	-1,	14,	24,	25,	34,	27,	17,	31,	-1,	-1,	8,	6,	1,	-1,	5,	-1,	12,	-1,	-1,	-1,	-1,	2,	-1,	-1|
-1,	27,	29,	23,	1,	8,	2,	-1,	-1,	-1,	14,	-1,	-1,	17,	3,	-1,	-1,	6,	-1,	-1,	-1,	-1,	-1,	5,	36,	18,	-1,	26,	34,	-1,	32,	12,	30,	-1,	7,	-1|
2,	36,	13,	4,	35,	15,	31,	33,	19,	8,	-1,	-1,	22,	34,	-1,	26,	14,	12,	-1,	9,	-1,	10,	29,	-1,	-1,	-1,	23,	-1,	3,	5,	-1,	-1,	-1,	-1,	-1,	-1|
6,	-1,	3,	-1,	5,	-1,	-1,	-1,	-1,	32,	-1,	15,	-1,	13,	10,	-1,	-1,	-1,	-1,	-1,	8,	31,	-1,	11,	14,	-1,	19,	-1,	21,	9,	-1,	-1,	-1,	16,	28,	22|
-1,	19,	-1,	28,	26,	22,	-1,	16,	-1,	2,	-1,	-1,	-1,	8,	21,	-1,	20,	-1,	-1,	35,	32,	-1,	27,	24,	18,	-1,	-1,	6,	11,	-1,	-1,	3,	-1,	-1,	17,	29|
24,	-1,	-1,	7,	20,	-1,	-1,	18,	28,	9,	-1,	-1,	-1,	-1,	36,	6,	16,	-1,	-1,	-1,	-1,	-1,	-1,	22,	-1,	12,	29,	-1,	-1,	-1,	11,	27,	8,	23,	2,	14|
9,	23,	-1,	10,	25,	-1,	24,	-1,	-1,	-1,	22,	36,	27,	-1,	32,	3,	1,	28,	-1,	14,	-1,	-1,	34,	2,	-1,	16,	-1,	-1,	20,	-1,	-1,	6,	15,	-1,	33,	-1|
30,	11,	16,	27,	8,	32,	-1,	-1,	-1,	34,	17,	23,	31,	-1,	18,	29,	35,	9,	5,	-1,	3,	15,	-1,	-1,	-1,	-1,	36,	28,	24,	2,	19,	-1,	4,	-1,	-1,	12|
-1,	-1,	19,	-1,	-1,	-1,	35,	31,	27,	-1,	13,	11,	-1,	6,	30,	-1,	-1,	34,	-1,	4,	24,	-1,	9,	36,	5,	-1,	12,	14,	25,	-1,	-1,	8,	22,	33,	15,	-1|
18,	20,	11,	17,	33,	24,	29,	-1,	36,	4,	-1,	-1,	35,	21,	-1,	13,	25,	-1,	-1,	-1,	-1,	19,	5,	12,	-1,	3,	16,	-1,	-1,	22,	27,	9,	34,	-1,	-1,	10|
3,	30,	1,	-1,	2,	-1,	28,	12,	-1,	20,	-1,	-1,	-1,	-1,	31,	22,	4,	5,	-1,	33,	-1,	21,	14,	-1,	-1,	6,	-1,	11,	-1,	-1,	35,	-1,	13,	17,	-1,	16|
26,	-1,	-1,	-1,	14,	-1,	-1,	-1,	-1,	33,	-1,	-1,	-1,	24,	16,	-1,	-1,	-1,	10,	-1,	-1,	-1,	22,	28,	8,	7,	-1,	19,	-1,	4,	2,	23,	21,	-1,	20,	-1|
-1,	-1,	22,	8,	-1,	-1,	34,	5,	-1,	-1,	-1,	21,	-1,	-1,	-1,	-1,	18,	19,	6,	11,	26,	-1,	31,	-1,	15,	-1,	-1,	-1,	-1,	24,	14,	25,	32,	-1,	-1,	-1|
-1,	5,	-1,	15,	-1,	-1,	22,	19,	10,	-1,	25,	-1,	9,	32,	29,	-1,	8,	-1,	1,	16,	18,	-1,	7,	35,	-1,	28,	-1,	-1,	-1,	-1,	31,	30,	-1,	-1,	-1,	4|];
